24
763783 1559844
914370 1724668
831207 1548321
100284 186455
487486 1012952
182921 337633
369532 806295
727094 1329837
272162 546869
227474 446874
170387 316848
697344 1399126
266796 578882
41169 79486
937876 1816706
883615 1665934
923090 1917601
385246 770200
839734 1732704
423575 806240
33377 65751
975193 1870594
69579 140713
418849 859568
5971071